c SAT4J: a SATisfiability library for Java (c) 2004-2008 Daniel Le Berre
c This is free software under the dual EPL/GNU LGPL licenses.
c See www.sat4j.org for details.
c This software uses some libraries from the Jakarta Commons project. See jakarta.apache.org for details.
c version 2.1.0.v20090520
c sun.arch.data.model	32
c java.version	1.6.0_15
c os.name	Windows 7
c os.version	6.1
c os.arch	x86
c Free memory 4472808
c Max memory 66650112
c Total memory 5177344
c Number of processors 2
c --- Begin Solver configuration ---
c Stops conflict analysis at the first Unique Implication Point
c org.sat4j.pb.constraints.CompetResolutionPBMixedHTClauseCardConstrDataStructure@7b7072
c Learn all clauses as in MiniSAT
c claDecay=0.999 varDecay=0.95 conflictBoundIncFactor=1.5 initConflictBound=100 
c VSIDS like heuristics from MiniSAT using a heap phase appearing in latest learned clause taking into account the objective function
c Expensive reason simplification
c MiniSAT restarts strategy
c Memory based learned constraints deletion strategy
c timeout=60s
c DB Simplification allowed=false
c --- End Solver configuration ---
c solving problem.wcnf
c reading problem ... 
c ... done. Wall clock time 0.0010s.
c #vars     32
c #constraints  21
c constraints type 
c org.sat4j.minisat.constraints.cnf.OriginalHTClause => 21
c OPTIMIZING...
c Got one! Elapsed wall clock time (in seconds):0.0050
o 2cc starts		: 1cc conflicts		: 3cc decisions		: 23cc propagations		: 81cc inspects		: 88cc learnt literals	: 0cc learnt binary clauses	: 0cc learnt ternary clauses	: 0cc learnt clauses	: 3cc ignored clauses	: 0cc root simplifications	: 0cc removed literals (reason simplification)	: 0cc reason swapping (by a shorter reason)	: 0cc Calls to reduceDB	: 0c speed (assignments/second)	: 890.109890c non guic non guided chc learnt c learnt constraints type 
c constraints type 
c org.sat4j.pb.constraints.pb.MaxWatchPb => 0
c org.sat4j.minisat.constraints.cnf.OriginalHTClause => 21
s OPTIMUM FOUND
v -1 -2 3 4 -5 -6 7 8 9 10 11 0
c objective function=2
c Total wall clock time (in seconds): 0.115
